UFFLP version 2.0 over Coin-Cbc 2.4 by Artur Alves Pessoa
Clp0033I Presolve took 0.00 seconds (total 0.00)
Clp0031I Matrix can not be converted into +- 1
Clp1001I Initial range of elements is 1 to 4400
Clp1003I Final range of elements is 0.2766 to 3.61533
Clp0022I Absolute values of scaled rhs range from 2.56947 to 2.85385, minimum gap 1e+100
Clp0020I Absolute values of scaled objective range from 103.176 to 103.176
Clp0021I Absolute values of scaled bounds range from 0.733666 to 48.4609, minimum gap 0.733666
Clp0006I 0  Obj 0 Primal inf 66.0688 (24)
Clp0006I 41  Obj 7.00715e-17
Clp0000I Optimal - objective value 0
Clp0033I Dual took 0.00 seconds (total 0.00)
Clp0032I Optimal objective 0 - 41 iterations time 0.002
Cgl0003I 0 fixed, 0 tightened bounds, 120 strengthened rows, 0 substitutions
Cgl0003I 0 fixed, 0 tightened bounds, 120 strengthened rows, 0 substitutions
Cgl0003I 0 fixed, 0 tightened bounds, 120 strengthened rows, 0 substitutions
Cgl0003I 0 fixed, 0 tightened bounds, 120 strengthened rows, 0 substitutions
Cgl0003I 0 fixed, 0 tightened bounds, 120 strengthened rows, 0 substitutions
Cgl0003I 0 fixed, 0 tightened bounds, 120 strengthened rows, 0 substitutions
Cgl0003I 0 fixed, 0 tightened bounds, 119 strengthened rows, 0 substitutions
Cgl0003I 0 fixed, 0 tightened bounds, 108 strengthened rows, 0 substitutions
Cgl0003I 0 fixed, 0 tightened bounds, 86 strengthened rows, 0 substitutions
Cgl0003I 0 fixed, 0 tightened bounds, 69 strengthened rows, 0 substitutions
Cgl0004I processed model has 144 rows, 277 columns (276 integer) and 1774 elements
Cbc0009I Objective coefficients multiple of 1
Cbc0046I Root node pass 1, 144 rows, 0 total tight cuts  -  objective 0
Cbc0046I Root node pass 2, 147 rows, 3 total tight cuts  -  objective 0
Cbc0046I Root node pass 3, 148 rows, 4 total tight cuts  -  objective 0
Cbc0012I Integer solution of 0 found by rounding after 17 iterations and 0 nodes (0.20 seconds)
Cbc0031I 4 added rows had average density of 57.5
Cbc0013I At root node, 4 cuts changed objective from 0 to 0 in 3 passes
Cbc0014I Cut generator 0 (UFFLP_User) - 0 row cuts average 0.0 elements, 0 column cuts (0 active)
Cbc0014I Cut generator 1 (Probing) - 0 row cuts average 0.0 elements, 0 column cuts (0 active)  in 0.020 seconds - new frequency is 1
Cbc0014I Cut generator 2 (Gomory) - 13 row cuts average 129.5 elements, 0 column cuts (4 active)  in 0.001 seconds - new frequency is 1
Cbc0014I Cut generator 3 (Knapsack) - 0 row cuts average 0.0 elements, 0 column cuts (0 active)  in 0.001 seconds - new frequency is 1000
Cbc0014I Cut generator 4 (Clique) - 4 row cuts average 3.0 elements, 0 column cuts (0 active)  in 0.000 seconds - new frequency is 1
Cbc0014I Cut generator 5 (FlowCover) - 0 row cuts average 0.0 elements, 0 column cuts (0 active)  in 0.000 seconds - new frequency is 1000
Cbc0014I Cut generator 6 (MixedIntegerRounding2) - 0 row cuts average 0.0 elements, 0 column cuts (0 active)  in 0.001 seconds - new frequency is 1000
Cbc0001I Search completed - best objective 0, took 17 iterations and 0 nodes (0.20 seconds)
Cbc0035I Maximum depth 0, 0 variables fixed on reduced cost
